SDVRP instances/custom_instances/p01_11_splitx10_0.vrp
NAME:p01_11_splitx10_
BEST_KNOWN: 0
COMMENT: 0
DIMENSION: 230
CAPACITY: 1600
EDGE_WEIGHT_FORMAT: FUNCTION
EDGE_WEIGHT_TYPE: EXACT_2D
NODE_COORD_SECTION
1 0.00000 0.00000
2 41 28
3 41 28
4 41 28
5 -30 -25
6 -30 -25
7 -30 -25
8 -30 -25
9 -30 -25
10 43 -35
11 43 -35
12 43 -35
13 43 -35
14 43 -35
15 30 -14
16 30 -14
17 -12 -15
18 -12 -15
19 -12 -15
20 -12 -15
21 -12 -15
22 -12 -15
23 -12 -15
24 -48 -2
25 -48 -2
26 -48 -2
27 -48 -2
28 -48 -2
29 -48 -2
30 44 0
31 44 0
32 44 0
33 44 0
34 44 0
35 44 0
36 44 0
37 -29 36
38 -29 36
39 -29 36
40 -29 36
41 -29 36
42 -29 36
43 -2 3
44 -2 3
45 -2 3
46 -15 29
47 -15 29
48 -15 29
49 -15 29
50 -15 29
51 -26 -34
52 -26 -34
53 -26 -34
54 -1 42
55 -1 42
56 -1 42
57 -1 42
58 -1 42
59 -1 42
60 35 -33
61 35 -33
62 35 -33
63 -31 -30
64 -31 -30
65 -19 19
66 -19 19
67 -19 19
68 -19 19
69 -19 19
70 -28 -22
71 -28 -22
72 -28 -22
73 -28 -22
74 -28 -22
75 -28 -22
76 -28 -22
77 -47 -29
78 -47 -29
79 -47 -29
80 -47 -29
81 -47 -29
82 -47 -29
83 -47 -29
84 -47 -29
85 46 44
86 46 44
87 46 44
88 46 44
89 46 44
90 -36 14
91 -36 14
92 -36 14
93 -36 14
94 -36 14
95 -36 14
96 34 0
97 34 0
98 18 9
99 18 9
100 18 9
101 18 9
102 29 -49
103 29 -49
104 29 -49
105 21 -1
106 21 -1
107 21 -1
108 21 -1
109 28 29
110 28 29
111 28 29
112 -24 -25
113 -24 -25
114 -24 -25
115 -24 -25
116 -15 -24
117 -15 -24
118 -15 -24
119 -15 -24
120 -32 31
121 -32 31
122 -32 31
123 -32 31
124 -32 31
125 -32 31
126 -28 11
127 -28 11
128 -28 11
129 5 41
130 5 41
131 5 41
132 5 41
133 5 41
134 5 41
135 5 41
136 32 -43
137 32 -43
138 32 -43
139 32 -43
140 32 -43
141 -12 -5
142 -12 -5
143 -12 -5
144 -12 -5
145 -12 -5
146 -12 -5
147 -33 -22
148 -33 -22
149 -33 -22
150 18 -2
151 18 -2
152 18 -2
153 11 16
154 11 16
155 11 16
156 -46 -16
157 -46 -16
158 -46 -16
159 -46 -16
160 -35 19
161 -35 19
162 -35 19
163 -35 19
164 -35 19
165 -13 -39
166 -13 -39
167 -13 -39
168 -13 -39
169 -13 -39
170 0 15
171 0 15
172 0 15
173 0 15
174 0 15
175 0 15
176 30 -45
177 30 -45
178 30 -45
179 30 -45
180 30 -45
181 30 -45
182 -12 -42
183 -12 -42
184 -34 24
185 -34 24
186 -34 24
187 -34 24
188 -34 24
189 18 40
190 18 40
191 18 40
192 18 40
193 18 40
194 18 40
195 18 40
196 -27 12
197 -27 12
198 -27 12
199 -27 12
200 -27 12
201 -27 12
202 -27 12
203 17 25
204 17 25
205 17 25
206 17 25
207 -6 6
208 -6 6
209 -6 6
210 -36 -44
211 -36 -44
212 -36 -44
213 -36 -44
214 -36 -44
215 20 -44
216 20 -44
217 20 -44
218 20 -44
219 14 2
220 14 2
221 14 2
222 -19 -45
223 -19 -45
224 -19 -45
225 -19 -45
226 -19 -45
227 7 -22
228 7 -22
229 7 -22
230 7 -22
DEMAND_SECTION
1 0
2 320
3 160
4 10
5 320
6 16
7 16
8 16
9 12
10 160
11 16
12 16
13 16
14 2
15 320
16 80
17 320
18 320
19 80
20 16
21 16
22 16
23 12
24 320
25 320
26 16
27 16
28 16
29 2
30 320
31 320
32 80
33 16
34 16
35 16
36 12
37 320
38 160
39 16
40 16
41 16
42 2
43 320
44 160
45 10
46 320
47 320
48 80
49 16
50 14
51 160
52 80
53 10
54 160
55 80
56 16
57 16
58 16
59 12
60 320
61 16
62 4
63 320
64 320
65 320
66 160
67 80
68 16
69 4
70 320
71 320
72 16
73 16
74 16
75 16
76 6
77 320
78 160
79 80
80 16
81 16
82 16
83 16
84 6
85 320
86 160
87 80
88 16
89 14
90 320
91 320
92 16
93 16
94 16
95 2
96 320
97 10
98 320
99 160
100 80
101 10
102 320
103 16
104 4
105 320
106 320
107 16
108 4
109 320
110 320
111 10
112 320
113 160
114 80
115 10
116 320
117 160
118 16
119 4
120 160
121 80
122 16
123 16
124 16
125 2
126 320
127 16
128 4
129 320
130 320
131 16
132 16
133 16
134 16
135 6
136 160
137 16
138 16
139 16
140 2
141 320
142 80
143 16
144 16
145 16
146 2
147 320
148 80
149 10
150 320
151 160
152 10
153 160
154 80
155 10
156 320
157 80
158 16
159 4
160 320
161 160
162 80
163 16
164 4
165 160
166 16
167 16
168 16
169 12
170 320
171 160
172 16
173 16
174 16
175 2
176 320
177 320
178 16
179 16
180 16
181 12
182 320
183 10
184 160
185 80
186 16
187 16
188 8
189 320
190 320
191 80
192 16
193 16
194 16
195 12
196 320
197 160
198 80
199 16
200 16
201 16
202 12
203 160
204 16
205 16
206 8
207 320
208 320
209 80
210 320
211 160
212 80
213 16
214 14
215 320
216 16
217 16
218 8
219 160
220 80
221 10
222 160
223 80
224 16
225 16
226 8
227 320
228 80
229 16
230 14
DEPOT_SECTION
1
-1
EOF