SDVRP instances/custom_instances/p01_11_splitx10_0.sol
229 -15 14 59 61 60 13 11 12 10 9 137 135 138 136 139 226 229 227 228 -20 114 111 112 113 4 69 70 72 71 -23 27 25 26 24 28 156 155 158 157 146 147 148 143 -44 43 42 206 207 208 -47 45 46 48 49 37 39 36 40 41 38 121 124 119 120 122 123 -65 68 67 64 66 195 197 200 199 198 201 196 125 -74 75 73 5 6 7 8 62 63 50 52 51 181 182 168 165 167 164 166 -95 96 31 33 32 35 34 30 29 100 97 99 -98 1 2 3 88 85 84 86 87 109 -110 108 191 192 190 194 193 188 189 203 205 204 202 153 154 152 -118 116 115 117 18 21 19 16 17 22 140 144 -127 126 92 91 94 90 93 89 162 161 160 163 159 186 185 183 184 187 -131 134 129 132 133 128 130 58 55 54 56 53 57 173 170 171 172 169 174 -142 145 141 78 83 77 82 81 80 76 79 209 212 211 213 210 222 225 223 224 221 -149 150 151 107 106 104 105 218 220 219 -179 176 180 177 178 175 101 103 102 216 217 215 214 0 





OBJ=
1485.751
BEST_KNOWN=
0.000